100 78767

 497 109
328 317
988 168
535 812
580 982
910 920
447 435
373 442
362 218
93 222
321 673
324 528
384 278
575 569
736 574
737 875
881 466
346 839
849 754
103 602
215 584
192 838
672 30
884 359
719 919
781 288
194 86
380 234
403 747
664 313
749 365
600 777
11 799
187 839
726 905
15 269
778 698
297 131
411 803
956 993
585 789
52 832
640 351
28 180
577 802
17 480
351 889
428 163
650 783
831 888
229 96
766 774
989 510
210 365
431 981
294 353
743 800
753 436
582 83
104 225
204 412
53 735
974 981
940 118
375 482
842 192
54 591
276 590
335 659
31 107
135 382
58 783
105 390
266 244
522 585
496 869
253 468
295 866
668 934
158 538
549 210
631 604
67 637
754 947
299 73
463 992
725 635
820 309
101 696
56 699
332 710
836 590
751 860
393 186
743 856
874 253
381 13
92 299
791 76
447 51
